Version identifier: 12.10.0.0 | 2019-11-26 | 843d4de
CPXPARAM_WorkMem                                 16384
CPXPARAM_MIP_Limits_TreeMemory                   24576
Tried aggregator 2 times.
MIP Presolve eliminated 6 rows and 0 columns.
MIP Presolve added 12 rows and 0 columns.
Aggregator did 30 substitutions.
Reduced MIP has 48 rows, 50 columns, and 212 nonzeros.
Reduced MIP has 50 binaries, 0 generals, 0 SOSs, and 0 indicators.
Presolve time = 0,00 sec. (0,40 ticks)
Found incumbent of value 91,000000 after 0,00 sec. (0,46 ticks)
Probing time = 0,00 sec. (0,14 ticks)
Tried aggregator 1 time.
Detecting symmetries...
Reduced MIP has 48 rows, 50 columns, and 212 nonzeros.
Reduced MIP has 50 binaries, 0 generals, 0 SOSs, and 0 indicators.
Presolve time = 0,00 sec. (0,16 ticks)
Probing time = 0,00 sec. (0,14 ticks)
Clique table members: 206.
MIP emphasis: balance optimality and feasibility.
MIP search method: dynamic search.
Parallel mode: deterministic, using up to 16 threads.
Root relaxation solution time = 0,00 sec. (0,07 ticks)

        Nodes                                         Cuts/
   Node  Left     Objective  IInf  Best Integer    Best Bound    ItCnt     Gap

*     0+    0                           91,0000        0,0000           100,00%
*     0+    0                           87,0000        0,0000           100,00%
      0     0       73,0000    10       87,0000       73,0000       12   16,09%
Detecting symmetries...
      0     2       73,0000     6       87,0000       83,0000       12    4,60%
Elapsed time = 0,02 sec. (1,76 ticks, tree = 0,02 MB, solutions = 2)

Cover cuts applied:  10
Implied bound cuts applied:  2

Root node processing (before b&c):
  Real time             =    0,01 sec. (1,74 ticks)
Parallel b&c, 16 threads:
  Real time             =    0,02 sec. (0,59 ticks)
  Sync time (average)   =    0,01 sec.
  Wait time (average)   =    0,00 sec.
                          ------------
Total (root+branch&cut) =    0,03 sec. (2,33 ticks)
